<number of tasks>
20

<cycle time>
1000

<order strength>
0,505


<task times>
1 136
2 106
3 251
4 272
5 38
6 132
7 207
8 105
9 175
10 207
11 89
12 133
13 168
14 43
15 221
16 121
17 61
18 30
19 262
20 153

<precedence relations>
1,7
2,6
2,15
3,11
4,8
5,8
6,10
7,9
8,11
9,12
10,13
11,14
11,15
12,17
13,17
14,16
15,17
16,18
17,18
17,19
17,20

<end>
